23
11
36
8
0
7
22
0
6
0
0
0
0
0
0
13
20
24
10
0
0
9
23
17
8
15
0
35
13
15
19
0
29
0
18
0
19
0
15
0
33
0
0
0
37
14
12
0
13
29
20
12
26
12
0
0
7
14
11
0
0
8
34
21
13
0
0
12
25
21
0
0
7
35
33
0
17
17
7
13
8
18
10
0
12
25
6
13
11
0
10
19
0
16
8
10
0
15
0
16
